c This is it
p cnf 102 1780
3 4 5 6 0
-3 -4 0
-3 -5 0
-3 -6 0
-4 -5 0
-4 -6 0
-5 -6 0
1 2 0
-1 -2 0
-7 0
-8 0
-9 0
-10 0
-11 0
-12 0
-13 0
-14 0
-15 0
-16 0
-17 0
-18 0
-19 0
-20 0
-21 0
-22 0
-23 0
-24 0
-25 0
26 0
-27 0
-28 0
-29 0
-30 0
-55 0
-56 0
-57 0
-58 0
-59 0
-60 0
-61 0
-62 0
-63 0
-64 0
-65 0
-66 0
-67 0
-68 0
-69 0
-70 0
-71 0
-72 0
-73 0
-74 0
-75 0
-76 0
-77 0
-78 0
55 -79 0
-7 -32 0
-7 -34 0
-7 -35 0
-7 -36 0
-7 -37 0
-7 -38 0
-7 -39 0
-7 -40 0
-7 -41 0
-7 -42 0
-7 -44 0
-7 -45 0
-7 -46 0
-7 -47 0
-7 -48 0
-7 -51 0
-7 -52 0
-7 -53 0
-7 -54 0
-7 -31 2 0
-7 -56 80 0
-7 -58 82 0
-7 -59 83 0
-7 -60 84 0
-7 -61 85 0
-7 -62 86 0
-7 -63 87 0
-7 -64 88 0
-7 -65 89 0
-7 -66 90 0
-7 -68 92 0
-7 -69 93 0
-7 -70 94 0
-7 -71 95 0
-7 -72 96 0
-7 -75 99 0
-7 -76 100 0
-7 -77 101 0
-7 -78 102 0
-55 2 79 0
-7 31 1 0
7 -31 1 0
-7 -1 -3 49 0
-7 -1 -3 -97 0
-7 -1 -3 -33 0
-7 -1 -3 -50 0
-7 -1 -3 -43 0
-7 -2 -3 73 0
-7 -2 -3 -97 0
-7 -3 -57 81 0
-7 -3 -74 98 0
-7 -3 -67 91 0
-7 -1 -4 33 0
-7 -1 -4 -81 0
-7 -1 -4 -49 0
-7 -1 -4 -50 0
-7 -1 -4 -43 0
-7 -2 -4 57 0
-7 -2 -4 -81 0
-7 -4 -73 97 0
-7 -4 -74 98 0
-7 -4 -67 91 0
-7 -1 -5 50 0
-7 -1 -5 -98 0
-7 -1 -5 -49 0
-7 -1 -5 -33 0
-7 -1 -5 -43 0
-7 -2 -5 74 0
-7 -2 -5 -98 0
-7 -5 -73 97 0
-7 -5 -57 81 0
-7 -5 -67 91 0
-7 -1 -6 43 0
-7 -1 -6 -91 0
-7 -1 -6 -49 0
-7 -1 -6 -33 0
-7 -1 -6 -50 0
-7 -2 -6 67 0
-7 -2 -6 -91 0
-7 -6 -73 97 0
-7 -6 -57 81 0
-7 -6 -74 98 0
56 -80 0
-8 -31 0
-8 -33 0
-8 -34 0
-8 -35 0
-8 -36 0
-8 -37 0
-8 -38 0
-8 -39 0
-8 -41 0
-8 -42 0
-8 -43 0
-8 -45 0
-8 -46 0
-8 -47 0
-8 -49 0
-8 -50 0
-8 -51 0
-8 -52 0
-8 -53 0
-8 -54 0
-8 -32 2 0
-8 -3 0
-8 -55 79 0
-8 -57 81 0
-8 -58 82 0
-8 -59 83 0
-8 -60 84 0
-8 -61 85 0
-8 -62 86 0
-8 -63 87 0
-8 -65 89 0
-8 -66 90 0
-8 -67 91 0
-8 -69 93 0
-8 -70 94 0
-8 -71 95 0
-8 -73 97 0
-8 -74 98 0
-8 -75 99 0
-8 -76 100 0
-8 -77 101 0
-8 -78 102 0
-56 2 80 0
-8 32 1 0
8 -32 1 0
-8 -1 -4 40 0
-8 -1 -4 -88 0
-8 -1 -4 -48 0
-8 -1 -4 -44 0
-8 -2 -4 64 0
-8 -2 -4 -88 0
-8 -4 -72 96 0
-8 -4 -68 92 0
-8 -1 -5 48 0
-8 -1 -5 -96 0
-8 -1 -5 -40 0
-8 -1 -5 -44 0
-8 -2 -5 72 0
-8 -2 -5 -96 0
-8 -5 -64 88 0
-8 -5 -68 92 0
-8 -1 -6 44 0
-8 -1 -6 -92 0
-8 -1 -6 -40 0
-8 -1 -6 -48 0
-8 -2 -6 68 0
-8 -2 -6 -92 0
-8 -6 -64 88 0
-8 -6 -72 96 0
57 -81 0
-9 -32 0
-9 -34 0
-9 -35 0
-9 -36 0
-9 -37 0
-9 -38 0
-9 -39 0
-9 -40 0
-9 -41 0
-9 -42 0
-9 -43 0
-9 -44 0
-9 -46 0
-9 -47 0
-9 -48 0
-9 -49 0
-9 -50 0
-9 -51 0
-9 -53 0
-9 -54 0
-9 -33 2 0
-9 -4 0
-9 -56 80 0
-9 -58 82 0
-9 -59 83 0
-9 -60 84 0
-9 -61 85 0
-9 -62 86 0
-9 -63 87 0
-9 -64 88 0
-9 -65 89 0
-9 -66 90 0
-9 -67 91 0
-9 -68 92 0
-9 -70 94 0
-9 -71 95 0
-9 -72 96 0
-9 -73 97 0
-9 -74 98 0
-9 -75 99 0
-9 -77 101 0
-9 -78 102 0
-57 2 81 0
-9 33 1 0
9 -33 1 0
-9 -1 -3 31 0
-9 -1 -3 -79 0
-9 -1 -3 -52 0
-9 -1 -3 -45 0
-9 -2 -3 55 0
-9 -2 -3 -79 0
-9 -3 -76 100 0
-9 -3 -69 93 0
-9 -1 -5 52 0
-9 -1 -5 -100 0
-9 -1 -5 -31 0
-9 -1 -5 -45 0
-9 -2 -5 76 0
-9 -2 -5 -100 0
-9 -5 -55 79 0
-9 -5 -69 93 0
-9 -1 -6 45 0
-9 -1 -6 -93 0
-9 -1 -6 -31 0
-9 -1 -6 -52 0
-9 -2 -6 69 0
-9 -2 -6 -93 0
-9 -6 -55 79 0
-9 -6 -76 100 0
58 -82 0
-10 -31 0
-10 -32 0
-10 -33 0
-10 -35 0
-10 -37 0
-10 -38 0
-10 -39 0
-10 -41 0
-10 -42 0
-10 -43 0
-10 -44 0
-10 -45 0
-10 -46 0
-10 -47 0
-10 -49 0
-10 -50 0
-10 -51 0
-10 -52 0
-10 -53 0
-10 -54 0
-10 -34 2 0
-10 -5 0
-10 -55 79 0
-10 -56 80 0
-10 -57 81 0
-10 -59 83 0
-10 -61 85 0
-10 -62 86 0
-10 -63 87 0
-10 -65 89 0
-10 -66 90 0
-10 -67 91 0
-10 -68 92 0
-10 -69 93 0
-10 -70 94 0
-10 -71 95 0
-10 -73 97 0
-10 -74 98 0
-10 -75 99 0
-10 -76 100 0
-10 -77 101 0
-10 -78 102 0
-58 2 82 0
-10 34 1 0
10 -34 1 0
-10 -1 -3 48 0
-10 -1 -3 -96 0
-10 -1 -3 -36 0
-10 -1 -3 -40 0
-10 -2 -3 72 0
-10 -2 -3 -96 0
-10 -3 -60 84 0
-10 -3 -64 88 0
-10 -1 -4 36 0
-10 -1 -4 -84 0
-10 -1 -4 -48 0
-10 -1 -4 -40 0
-10 -2 -4 60 0
-10 -2 -4 -84 0
-10 -4 -72 96 0
-10 -4 -64 88 0
-10 -1 -6 40 0
-10 -1 -6 -88 0
-10 -1 -6 -48 0
-10 -1 -6 -36 0
-10 -2 -6 64 0
-10 -2 -6 -88 0
-10 -6 -72 96 0
-10 -6 -60 84 0
59 -83 0
-11 -31 0
-11 -32 0
-11 -33 0
-11 -34 0
-11 -36 0
-11 -38 0
-11 -39 0
-11 -40 0
-11 -41 0
-11 -42 0
-11 -43 0
-11 -44 0
-11 -45 0
-11 -47 0
-11 -48 0
-11 -49 0
-11 -50 0
-11 -52 0
-11 -54 0
-11 -35 2 0
-11 -55 79 0
-11 -56 80 0
-11 -57 81 0
-11 -58 82 0
-11 -60 84 0
-11 -62 86 0
-11 -63 87 0
-11 -64 88 0
-11 -65 89 0
-11 -66 90 0
-11 -67 91 0
-11 -68 92 0
-11 -69 93 0
-11 -71 95 0
-11 -72 96 0
-11 -73 97 0
-11 -74 98 0
-11 -76 100 0
-11 -78 102 0
-59 2 83 0
-11 35 1 0
11 -35 1 0
-11 -1 -3 51 0
-11 -1 -3 -99 0
-11 -1 -3 -37 0
-11 -1 -3 -53 0
-11 -1 -3 -46 0
-11 -2 -3 75 0
-11 -2 -3 -99 0
-11 -3 -61 85 0
-11 -3 -77 101 0
-11 -3 -70 94 0
-11 -1 -4 37 0
-11 -1 -4 -85 0
-11 -1 -4 -51 0
-11 -1 -4 -53 0
-11 -1 -4 -46 0
-11 -2 -4 61 0
-11 -2 -4 -85 0
-11 -4 -75 99 0
-11 -4 -77 101 0
-11 -4 -70 94 0
-11 -1 -5 53 0
-11 -1 -5 -101 0
-11 -1 -5 -51 0
-11 -1 -5 -37 0
-11 -1 -5 -46 0
-11 -2 -5 77 0
-11 -2 -5 -101 0
-11 -5 -75 99 0
-11 -5 -61 85 0
-11 -5 -70 94 0
-11 -1 -6 46 0
-11 -1 -6 -94 0
-11 -1 -6 -51 0
-11 -1 -6 -37 0
-11 -1 -6 -53 0
-11 -2 -6 70 0
-11 -2 -6 -94 0
-11 -6 -75 99 0
-11 -6 -61 85 0
-11 -6 -77 101 0
60 -84 0
-12 -31 0
-12 -32 0
-12 -33 0
-12 -35 0
-12 -37 0
-12 -38 0
-12 -39 0
-12 -40 0
-12 -41 0
-12 -43 0
-12 -44 0
-12 -45 0
-12 -46 0
-12 -47 0
-12 -48 0
-12 -49 0
-12 -50 0
-12 -51 0
-12 -52 0
-12 -53 0
-12 -54 0
-12 -36 2 0
-12 -4 0
-12 -5 0
-12 -55 79 0
-12 -56 80 0
-12 -57 81 0
-12 -59 83 0
-12 -61 85 0
-12 -62 86 0
-12 -63 87 0
-12 -64 88 0
-12 -65 89 0
-12 -67 91 0
-12 -68 92 0
-12 -69 93 0
-12 -70 94 0
-12 -71 95 0
-12 -72 96 0
-12 -73 97 0
-12 -74 98 0
-12 -75 99 0
-12 -76 100 0
-12 -77 101 0
-12 -78 102 0
-60 2 84 0
-12 36 1 0
12 -36 1 0
-12 -1 -3 34 0
-12 -1 -3 -82 0
-12 -1 -3 -42 0
-12 -2 -3 58 0
-12 -2 -3 -82 0
-12 -3 -66 90 0
-12 -1 -6 42 0
-12 -1 -6 -90 0
-12 -1 -6 -34 0
-12 -2 -6 66 0
-12 -2 -6 -90 0
-12 -6 -58 82 0
61 -85 0
-13 -31 0
-13 -32 0
-13 -33 0
-13 -34 0
-13 -36 0
-13 -38 0
-13 -39 0
-13 -40 0
-13 -41 0
-13 -42 0
-13 -43 0
-13 -44 0
-13 -45 0
-13 -46 0
-13 -48 0
-13 -49 0
-13 -50 0
-13 -51 0
-13 -52 0
-13 -53 0
-13 -37 2 0
-13 -4 0
-13 -55 79 0
-13 -56 80 0
-13 -57 81 0
-13 -58 82 0
-13 -60 84 0
-13 -62 86 0
-13 -63 87 0
-13 -64 88 0
-13 -65 89 0
-13 -66 90 0
-13 -67 91 0
-13 -68 92 0
-13 -69 93 0
-13 -70 94 0
-13 -72 96 0
-13 -73 97 0
-13 -74 98 0
-13 -75 99 0
-13 -76 100 0
-13 -77 101 0
-61 2 85 0
-13 37 1 0
13 -37 1 0
-13 -1 -3 35 0
-13 -1 -3 -83 0
-13 -1 -3 -54 0
-13 -1 -3 -47 0
-13 -2 -3 59 0
-13 -2 -3 -83 0
-13 -3 -78 102 0
-13 -3 -71 95 0
-13 -1 -5 54 0
-13 -1 -5 -102 0
-13 -1 -5 -35 0
-13 -1 -5 -47 0
-13 -2 -5 78 0
-13 -2 -5 -102 0
-13 -5 -59 83 0
-13 -5 -71 95 0
-13 -1 -6 47 0
-13 -1 -6 -95 0
-13 -1 -6 -35 0
-13 -1 -6 -54 0
-13 -2 -6 71 0
-13 -2 -6 -95 0
-13 -6 -59 83 0
-13 -6 -78 102 0
62 -86 0
-14 -31 0
-14 -32 0
-14 -33 0
-14 -34 0
-14 -35 0
-14 -36 0
-14 -37 0
-14 -39 0
-14 -40 0
-14 -42 0
-14 -44 0
-14 -45 0
-14 -46 0
-14 -47 0
-14 -48 0
-14 -50 0
-14 -51 0
-14 -52 0
-14 -53 0
-14 -54 0
-14 -38 2 0
-14 -3 0
-14 -55 79 0
-14 -56 80 0
-14 -57 81 0
-14 -58 82 0
-14 -59 83 0
-14 -60 84 0
-14 -61 85 0
-14 -63 87 0
-14 -64 88 0
-14 -66 90 0
-14 -68 92 0
-14 -69 93 0
-14 -70 94 0
-14 -71 95 0
-14 -72 96 0
-14 -74 98 0
-14 -75 99 0
-14 -76 100 0
-14 -77 101 0
-14 -78 102 0
-62 2 86 0
-14 38 1 0
14 -38 1 0
-14 -1 -4 43 0
-14 -1 -4 -91 0
-14 -1 -4 -49 0
-14 -1 -4 -41 0
-14 -2 -4 67 0
-14 -2 -4 -91 0
-14 -4 -73 97 0
-14 -4 -65 89 0
-14 -1 -5 49 0
-14 -1 -5 -97 0
-14 -1 -5 -43 0
-14 -1 -5 -41 0
-14 -2 -5 73 0
-14 -2 -5 -97 0
-14 -5 -67 91 0
-14 -5 -65 89 0
-14 -1 -6 41 0
-14 -1 -6 -89 0
-14 -1 -6 -43 0
-14 -1 -6 -49 0
-14 -2 -6 65 0
-14 -2 -6 -89 0
-14 -6 -67 91 0
-14 -6 -73 97 0
63 -87 0
-15 -31 0
-15 -32 0
-15 -33 0
-15 -34 0
-15 -35 0
-15 -36 0
-15 -37 0
-15 -38 0
-15 -40 0
-15 -41 0
-15 -42 0
-15 -43 0
-15 -44 0
-15 -45 0
-15 -47 0
-15 -48 0
-15 -49 0
-15 -50 0
-15 -52 0
-15 -53 0
-15 -54 0
-15 -39 2 0
-15 -3 0
-15 -6 0
-15 -55 79 0
-15 -56 80 0
-15 -57 81 0
-15 -58 82 0
-15 -59 83 0
-15 -60 84 0
-15 -61 85 0
-15 -62 86 0
-15 -64 88 0
-15 -65 89 0
-15 -66 90 0
-15 -67 91 0
-15 -68 92 0
-15 -69 93 0
-15 -71 95 0
-15 -72 96 0
-15 -73 97 0
-15 -74 98 0
-15 -76 100 0
-15 -77 101 0
-15 -78 102 0
-63 2 87 0
-15 39 1 0
15 -39 1 0
-15 -1 -4 46 0
-15 -1 -4 -94 0
-15 -1 -4 -51 0
-15 -2 -4 70 0
-15 -2 -4 -94 0
-15 -4 -75 99 0
-15 -1 -5 51 0
-15 -1 -5 -99 0
-15 -1 -5 -46 0
-15 -2 -5 75 0
-15 -2 -5 -99 0
-15 -5 -70 94 0
64 -88 0
-16 -31 0
-16 -33 0
-16 -35 0
-16 -36 0
-16 -37 0
-16 -38 0
-16 -39 0
-16 -41 0
-16 -43 0
-16 -44 0
-16 -45 0
-16 -46 0
-16 -47 0
-16 -48 0
-16 -49 0
-16 -51 0
-16 -52 0
-16 -53 0
-16 -54 0
-16 -40 2 0
-16 -55 79 0
-16 -57 81 0
-16 -59 83 0
-16 -60 84 0
-16 -61 85 0
-16 -62 86 0
-16 -63 87 0
-16 -65 89 0
-16 -67 91 0
-16 -68 92 0
-16 -69 93 0
-16 -70 94 0
-16 -71 95 0
-16 -72 96 0
-16 -73 97 0
-16 -75 99 0
-16 -76 100 0
-16 -77 101 0
-16 -78 102 0
-64 2 88 0
-16 40 1 0
16 -40 1 0
-16 -1 -3 32 0
-16 -1 -3 -80 0
-16 -1 -3 -42 0
-16 -1 -3 -34 0
-16 -1 -3 -50 0
-16 -2 -3 56 0
-16 -2 -3 -80 0
-16 -3 -66 90 0
-16 -3 -58 82 0
-16 -3 -74 98 0
-16 -1 -4 42 0
-16 -1 -4 -90 0
-16 -1 -4 -32 0
-16 -1 -4 -34 0
-16 -1 -4 -50 0
-16 -2 -4 66 0
-16 -2 -4 -90 0
-16 -4 -56 80 0
-16 -4 -58 82 0
-16 -4 -74 98 0
-16 -1 -5 34 0
-16 -1 -5 -82 0
-16 -1 -5 -32 0
-16 -1 -5 -42 0
-16 -1 -5 -50 0
-16 -2 -5 58 0
-16 -2 -5 -82 0
-16 -5 -56 80 0
-16 -5 -66 90 0
-16 -5 -74 98 0
-16 -1 -6 50 0
-16 -1 -6 -98 0
-16 -1 -6 -32 0
-16 -1 -6 -42 0
-16 -1 -6 -34 0
-16 -2 -6 74 0
-16 -2 -6 -98 0
-16 -6 -56 80 0
-16 -6 -66 90 0
-16 -6 -58 82 0
65 -89 0
-17 -31 0
-17 -32 0
-17 -33 0
-17 -34 0
-17 -35 0
-17 -36 0
-17 -37 0
-17 -39 0
-17 -40 0
-17 -42 0
-17 -43 0
-17 -44 0
-17 -45 0
-17 -46 0
-17 -47 0
-17 -48 0
-17 -49 0
-17 -50 0
-17 -52 0
-17 -54 0
-17 -41 2 0
-17 -3 0
-17 -55 79 0
-17 -56 80 0
-17 -57 81 0
-17 -58 82 0
-17 -59 83 0
-17 -60 84 0
-17 -61 85 0
-17 -63 87 0
-17 -64 88 0
-17 -66 90 0
-17 -67 91 0
-17 -68 92 0
-17 -69 93 0
-17 -70 94 0
-17 -71 95 0
-17 -72 96 0
-17 -73 97 0
-17 -74 98 0
-17 -76 100 0
-17 -78 102 0
-65 2 89 0
-17 41 1 0
17 -41 1 0
-17 -1 -4 53 0
-17 -1 -4 -101 0
-17 -1 -4 -38 0
-17 -1 -4 -51 0
-17 -2 -4 77 0
-17 -2 -4 -101 0
-17 -4 -62 86 0
-17 -4 -75 99 0
-17 -1 -5 38 0
-17 -1 -5 -86 0
-17 -1 -5 -53 0
-17 -1 -5 -51 0
-17 -2 -5 62 0
-17 -2 -5 -86 0
-17 -5 -77 101 0
-17 -5 -75 99 0
-17 -1 -6 51 0
-17 -1 -6 -99 0
-17 -1 -6 -53 0
-17 -1 -6 -38 0
-17 -2 -6 75 0
-17 -2 -6 -99 0
-17 -6 -77 101 0
-17 -6 -62 86 0
66 -90 0
-18 -31 0
-18 -32 0
-18 -33 0
-18 -34 0
-18 -35 0
-18 -37 0
-18 -38 0
-18 -39 0
-18 -41 0
-18 -43 0
-18 -44 0
-18 -45 0
-18 -46 0
-18 -47 0
-18 -48 0
-18 -49 0
-18 -50 0
-18 -51 0
-18 -53 0
-18 -54 0
-18 -42 2 0
-18 -4 0
-18 -55 79 0
-18 -56 80 0
-18 -57 81 0
-18 -58 82 0
-18 -59 83 0
-18 -61 85 0
-18 -62 86 0
-18 -63 87 0
-18 -65 89 0
-18 -67 91 0
-18 -68 92 0
-18 -69 93 0
-18 -70 94 0
-18 -71 95 0
-18 -72 96 0
-18 -73 97 0
-18 -74 98 0
-18 -75 99 0
-18 -77 101 0
-18 -78 102 0
-66 2 90 0
-18 42 1 0
18 -42 1 0
-18 -1 -3 40 0
-18 -1 -3 -88 0
-18 -1 -3 -36 0
-18 -1 -3 -52 0
-18 -2 -3 64 0
-18 -2 -3 -88 0
-18 -3 -60 84 0
-18 -3 -76 100 0
-18 -1 -5 36 0
-18 -1 -5 -84 0
-18 -1 -5 -40 0
-18 -1 -5 -52 0
-18 -2 -5 60 0
-18 -2 -5 -84 0
-18 -5 -64 88 0
-18 -5 -76 100 0
-18 -1 -6 52 0
-18 -1 -6 -100 0
-18 -1 -6 -40 0
-18 -1 -6 -36 0
-18 -2 -6 76 0
-18 -2 -6 -100 0
-18 -6 -64 88 0
-18 -6 -60 84 0
67 -91 0
-19 -32 0
-19 -33 0
-19 -34 0
-19 -35 0
-19 -36 0
-19 -37 0
-19 -39 0
-19 -40 0
-19 -41 0
-19 -42 0
-19 -44 0
-19 -46 0
-19 -47 0
-19 -48 0
-19 -49 0
-19 -50 0
-19 -51 0
-19 -52 0
-19 -54 0
-19 -43 2 0
-19 -56 80 0
-19 -57 81 0
-19 -58 82 0
-19 -59 83 0
-19 -60 84 0
-19 -61 85 0
-19 -63 87 0
-19 -64 88 0
-19 -65 89 0
-19 -66 90 0
-19 -68 92 0
-19 -70 94 0
-19 -71 95 0
-19 -72 96 0
-19 -73 97 0
-19 -74 98 0
-19 -75 99 0
-19 -76 100 0
-19 -78 102 0
-67 2 91 0
-19 43 1 0
19 -43 1 0
-19 -1 -3 38 0
-19 -1 -3 -86 0
-19 -1 -3 -45 0
-19 -1 -3 -31 0
-19 -1 -3 -53 0
-19 -2 -3 62 0
-19 -2 -3 -86 0
-19 -3 -69 93 0
-19 -3 -55 79 0
-19 -3 -77 101 0
-19 -1 -4 45 0
-19 -1 -4 -93 0
-19 -1 -4 -38 0
-19 -1 -4 -31 0
-19 -1 -4 -53 0
-19 -2 -4 69 0
-19 -2 -4 -93 0
-19 -4 -62 86 0
-19 -4 -55 79 0
-19 -4 -77 101 0
-19 -1 -5 31 0
-19 -1 -5 -79 0
-19 -1 -5 -38 0
-19 -1 -5 -45 0
-19 -1 -5 -53 0
-19 -2 -5 55 0
-19 -2 -5 -79 0
-19 -5 -62 86 0
-19 -5 -69 93 0
-19 -5 -77 101 0
-19 -1 -6 53 0
-19 -1 -6 -101 0
-19 -1 -6 -38 0
-19 -1 -6 -45 0
-19 -1 -6 -31 0
-19 -2 -6 77 0
-19 -2 -6 -101 0
-19 -6 -62 86 0
-19 -6 -69 93 0
-19 -6 -55 79 0
68 -92 0
-20 -31 0
-20 -33 0
-20 -34 0
-20 -35 0
-20 -36 0
-20 -37 0
-20 -38 0
-20 -39 0
-20 -40 0
-20 -41 0
-20 -42 0
-20 -43 0
-20 -45 0
-20 -46 0
-20 -47 0
-20 -48 0
-20 -51 0
-20 -52 0
-20 -53 0
-20 -54 0
-20 -44 2 0
-20 -3 0
-20 -55 79 0
-20 -57 81 0
-20 -58 82 0
-20 -59 83 0
-20 -60 84 0
-20 -61 85 0
-20 -62 86 0
-20 -63 87 0
-20 -64 88 0
-20 -65 89 0
-20 -66 90 0
-20 -67 91 0
-20 -69 93 0
-20 -70 94 0
-20 -71 95 0
-20 -72 96 0
-20 -75 99 0
-20 -76 100 0
-20 -77 101 0
-20 -78 102 0
-68 2 92 0
-20 44 1 0
20 -44 1 0
-20 -1 -4 50 0
-20 -1 -4 -98 0
-20 -1 -4 -32 0
-20 -1 -4 -49 0
-20 -2 -4 74 0
-20 -2 -4 -98 0
-20 -4 -56 80 0
-20 -4 -73 97 0
-20 -1 -5 32 0
-20 -1 -5 -80 0
-20 -1 -5 -50 0
-20 -1 -5 -49 0
-20 -2 -5 56 0
-20 -2 -5 -80 0
-20 -5 -74 98 0
-20 -5 -73 97 0
-20 -1 -6 49 0
-20 -1 -6 -97 0
-20 -1 -6 -50 0
-20 -1 -6 -32 0
-20 -2 -6 73 0
-20 -2 -6 -97 0
-20 -6 -74 98 0
-20 -6 -56 80 0
69 -93 0
-21 -31 0
-21 -32 0
-21 -34 0
-21 -35 0
-21 -36 0
-21 -37 0
-21 -38 0
-21 -39 0
-21 -40 0
-21 -41 0
-21 -42 0
-21 -44 0
-21 -46 0
-21 -47 0
-21 -48 0
-21 -49 0
-21 -50 0
-21 -51 0
-21 -52 0
-21 -53 0
-21 -45 2 0
-21 -4 0
-21 -55 79 0
-21 -56 80 0
-21 -58 82 0
-21 -59 83 0
-21 -60 84 0
-21 -61 85 0
-21 -62 86 0
-21 -63 87 0
-21 -64 88 0
-21 -65 89 0
-21 -66 90 0
-21 -68 92 0
-21 -70 94 0
-21 -71 95 0
-21 -72 96 0
-21 -73 97 0
-21 -74 98 0
-21 -75 99 0
-21 -76 100 0
-21 -77 101 0
-69 2 93 0
-21 45 1 0
21 -45 1 0
-21 -1 -3 43 0
-21 -1 -3 -91 0
-21 -1 -3 -33 0
-21 -1 -3 -54 0
-21 -2 -3 67 0
-21 -2 -3 -91 0
-21 -3 -57 81 0
-21 -3 -78 102 0
-21 -1 -5 33 0
-21 -1 -5 -81 0
-21 -1 -5 -43 0
-21 -1 -5 -54 0
-21 -2 -5 57 0
-21 -2 -5 -81 0
-21 -5 -67 91 0
-21 -5 -78 102 0
-21 -1 -6 54 0
-21 -1 -6 -102 0
-21 -1 -6 -43 0
-21 -1 -6 -33 0
-21 -2 -6 78 0
-21 -2 -6 -102 0
-21 -6 -67 91 0
-21 -6 -57 81 0
70 -94 0
-22 -31 0
-22 -32 0
-22 -33 0
-22 -34 0
-22 -36 0
-22 -37 0
-22 -38 0
-22 -40 0
-22 -41 0
-22 -42 0
-22 -43 0
-22 -44 0
-22 -45 0
-22 -48 0
-22 -49 0
-22 -50 0
-22 -51 0
-22 -52 0
-22 -53 0
-22 -54 0
-22 -46 2 0
-22 -6 0
-22 -55 79 0
-22 -56 80 0
-22 -57 81 0
-22 -58 82 0
-22 -60 84 0
-22 -61 85 0
-22 -62 86 0
-22 -64 88 0
-22 -65 89 0
-22 -66 90 0
-22 -67 91 0
-22 -68 92 0
-22 -69 93 0
-22 -72 96 0
-22 -73 97 0
-22 -74 98 0
-22 -75 99 0
-22 -76 100 0
-22 -77 101 0
-22 -78 102 0
-70 2 94 0
-22 46 1 0
22 -46 1 0
-22 -1 -3 39 0
-22 -1 -3 -87 0
-22 -1 -3 -47 0
-22 -1 -3 -35 0
-22 -2 -3 63 0
-22 -2 -3 -87 0
-22 -3 -71 95 0
-22 -3 -59 83 0
-22 -1 -4 47 0
-22 -1 -4 -95 0
-22 -1 -4 -39 0
-22 -1 -4 -35 0
-22 -2 -4 71 0
-22 -2 -4 -95 0
-22 -4 -63 87 0
-22 -4 -59 83 0
-22 -1 -5 35 0
-22 -1 -5 -83 0
-22 -1 -5 -39 0
-22 -1 -5 -47 0
-22 -2 -5 59 0
-22 -2 -5 -83 0
-22 -5 -63 87 0
-22 -5 -71 95 0
71 -95 0
-23 -31 0
-23 -32 0
-23 -33 0
-23 -34 0
-23 -35 0
-23 -36 0
-23 -38 0
-23 -39 0
-23 -40 0
-23 -41 0
-23 -42 0
-23 -43 0
-23 -44 0
-23 -45 0
-23 -48 0
-23 -49 0
-23 -50 0
-23 -51 0
-23 -52 0
-23 -53 0
-23 -54 0
-23 -47 2 0
-23 -4 0
-23 -6 0
-23 -55 79 0
-23 -56 80 0
-23 -57 81 0
-23 -58 82 0
-23 -59 83 0
-23 -60 84 0
-23 -62 86 0
-23 -63 87 0
-23 -64 88 0
-23 -65 89 0
-23 -66 90 0
-23 -67 91 0
-23 -68 92 0
-23 -69 93 0
-23 -72 96 0
-23 -73 97 0
-23 -74 98 0
-23 -75 99 0
-23 -76 100 0
-23 -77 101 0
-23 -78 102 0
-71 2 95 0
-23 47 1 0
23 -47 1 0
-23 -1 -3 46 0
-23 -1 -3 -94 0
-23 -1 -3 -37 0
-23 -2 -3 70 0
-23 -2 -3 -94 0
-23 -3 -61 85 0
-23 -1 -5 37 0
-23 -1 -5 -85 0
-23 -1 -5 -46 0
-23 -2 -5 61 0
-23 -2 -5 -85 0
-23 -5 -70 94 0
72 -96 0
-24 -31 0
-24 -33 0
-24 -35 0
-24 -36 0
-24 -37 0
-24 -38 0
-24 -39 0
-24 -40 0
-24 -41 0
-24 -42 0
-24 -43 0
-24 -44 0
-24 -45 0
-24 -46 0
-24 -47 0
-24 -49 0
-24 -50 0
-24 -51 0
-24 -52 0
-24 -53 0
-24 -54 0
-24 -48 2 0
-24 -3 0
-24 -5 0
-24 -55 79 0
-24 -57 81 0
-24 -59 83 0
-24 -60 84 0
-24 -61 85 0
-24 -62 86 0
-24 -63 87 0
-24 -64 88 0
-24 -65 89 0
-24 -66 90 0
-24 -67 91 0
-24 -68 92 0
-24 -69 93 0
-24 -70 94 0
-24 -71 95 0
-24 -73 97 0
-24 -74 98 0
-24 -75 99 0
-24 -76 100 0
-24 -77 101 0
-24 -78 102 0
-72 2 96 0
-24 48 1 0
24 -48 1 0
-24 -1 -4 34 0
-24 -1 -4 -82 0
-24 -1 -4 -32 0
-24 -2 -4 58 0
-24 -2 -4 -82 0
-24 -4 -56 80 0
-24 -1 -6 32 0
-24 -1 -6 -80 0
-24 -1 -6 -34 0
-24 -2 -6 56 0
-24 -2 -6 -80 0
-24 -6 -58 82 0
73 -97 0
-25 -32 0
-25 -33 0
-25 -34 0
-25 -35 0
-25 -36 0
-25 -37 0
-25 -39 0
-25 -40 0
-25 -41 0
-25 -42 0
-25 -43 0
-25 -45 0
-25 -46 0
-25 -47 0
-25 -48 0
-25 -50 0
-25 -51 0
-25 -52 0
-25 -53 0
-25 -54 0
-25 -49 2 0
-25 -3 0
-25 -56 80 0
-25 -57 81 0
-25 -58 82 0
-25 -59 83 0
-25 -60 84 0
-25 -61 85 0
-25 -63 87 0
-25 -64 88 0
-25 -65 89 0
-25 -66 90 0
-25 -67 91 0
-25 -69 93 0
-25 -70 94 0
-25 -71 95 0
-25 -72 96 0
-25 -74 98 0
-25 -75 99 0
-25 -76 100 0
-25 -77 101 0
-25 -78 102 0
-73 2 97 0
-25 49 1 0
25 -49 1 0
-25 -1 -4 31 0
-25 -1 -4 -79 0
-25 -1 -4 -44 0
-25 -1 -4 -38 0
-25 -2 -4 55 0
-25 -2 -4 -79 0
-25 -4 -68 92 0
-25 -4 -62 86 0
-25 -1 -5 44 0
-25 -1 -5 -92 0
-25 -1 -5 -31 0
-25 -1 -5 -38 0
-25 -2 -5 68 0
-25 -2 -5 -92 0
-25 -5 -55 79 0
-25 -5 -62 86 0
-25 -1 -6 38 0
-25 -1 -6 -86 0
-25 -1 -6 -31 0
-25 -1 -6 -44 0
-25 -2 -6 62 0
-25 -2 -6 -86 0
-25 -6 -55 79 0
-25 -6 -68 92 0
74 -98 0
-26 -32 0
-26 -33 0
-26 -34 0
-26 -35 0
-26 -36 0
-26 -37 0
-26 -38 0
-26 -39 0
-26 -41 0
-26 -42 0
-26 -43 0
-26 -45 0
-26 -46 0
-26 -47 0
-26 -48 0
-26 -49 0
-26 -51 0
-26 -53 0
-26 -54 0
-26 -50 2 0
-26 -56 80 0
-26 -57 81 0
-26 -58 82 0
-26 -59 83 0
-26 -60 84 0
-26 -61 85 0
-26 -62 86 0
-26 -63 87 0
-26 -65 89 0
-26 -66 90 0
-26 -67 91 0
-26 -69 93 0
-26 -70 94 0
-26 -71 95 0
-26 -72 96 0
-26 -73 97 0
-26 -75 99 0
-26 -77 101 0
-26 -78 102 0
-74 2 98 0
-26 50 1 0
26 -50 1 0
-26 -1 -3 44 0
-26 -1 -3 -92 0
-26 -1 -3 -52 0
-26 -1 -3 -40 0
-26 -1 -3 -31 0
-26 -2 -3 68 0
-26 -2 -3 -92 0
-26 -3 -76 100 0
-26 -3 -64 88 0
-26 -3 -55 79 0
-26 -1 -4 52 0
-26 -1 -4 -100 0
-26 -1 -4 -44 0
-26 -1 -4 -40 0
-26 -1 -4 -31 0
-26 -2 -4 76 0
-26 -2 -4 -100 0
-26 -4 -68 92 0
-26 -4 -64 88 0
-26 -4 -55 79 0
-26 -1 -5 40 0
-26 -1 -5 -88 0
-26 -1 -5 -44 0
-26 -1 -5 -52 0
-26 -1 -5 -31 0
-26 -2 -5 64 0
-26 -2 -5 -88 0
-26 -5 -68 92 0
-26 -5 -76 100 0
-26 -5 -55 79 0
-26 -1 -6 31 0
-26 -1 -6 -79 0
-26 -1 -6 -44 0
-26 -1 -6 -52 0
-26 -1 -6 -40 0
-26 -2 -6 55 0
-26 -2 -6 -79 0
-26 -6 -68 92 0
-26 -6 -76 100 0
-26 -6 -64 88 0
75 -99 0
-27 -31 0
-27 -32 0
-27 -33 0
-27 -34 0
-27 -36 0
-27 -37 0
-27 -38 0
-27 -40 0
-27 -42 0
-27 -43 0
-27 -44 0
-27 -45 0
-27 -46 0
-27 -47 0
-27 -48 0
-27 -49 0
-27 -50 0
-27 -52 0
-27 -53 0
-27 -54 0
-27 -51 2 0
-27 -3 0
-27 -55 79 0
-27 -56 80 0
-27 -57 81 0
-27 -58 82 0
-27 -60 84 0
-27 -61 85 0
-27 -62 86 0
-27 -64 88 0
-27 -66 90 0
-27 -67 91 0
-27 -68 92 0
-27 -69 93 0
-27 -70 94 0
-27 -71 95 0
-27 -72 96 0
-27 -73 97 0
-27 -74 98 0
-27 -76 100 0
-27 -77 101 0
-27 -78 102 0
-75 2 99 0
-27 51 1 0
27 -51 1 0
-27 -1 -4 35 0
-27 -1 -4 -83 0
-27 -1 -4 -41 0
-27 -1 -4 -39 0
-27 -2 -4 59 0
-27 -2 -4 -83 0
-27 -4 -65 89 0
-27 -4 -63 87 0
-27 -1 -5 41 0
-27 -1 -5 -89 0
-27 -1 -5 -35 0
-27 -1 -5 -39 0
-27 -2 -5 65 0
-27 -2 -5 -89 0
-27 -5 -59 83 0
-27 -5 -63 87 0
-27 -1 -6 39 0
-27 -1 -6 -87 0
-27 -1 -6 -35 0
-27 -1 -6 -41 0
-27 -2 -6 63 0
-27 -2 -6 -87 0
-27 -6 -59 83 0
-27 -6 -65 89 0
76 -100 0
-28 -31 0
-28 -32 0
-28 -34 0
-28 -35 0
-28 -36 0
-28 -37 0
-28 -38 0
-28 -39 0
-28 -40 0
-28 -41 0
-28 -43 0
-28 -44 0
-28 -45 0
-28 -46 0
-28 -47 0
-28 -48 0
-28 -49 0
-28 -51 0
-28 -53 0
-28 -54 0
-28 -52 2 0
-28 -4 0
-28 -55 79 0
-28 -56 80 0
-28 -58 82 0
-28 -59 83 0
-28 -60 84 0
-28 -61 85 0
-28 -62 86 0
-28 -63 87 0
-28 -64 88 0
-28 -65 89 0
-28 -67 91 0
-28 -68 92 0
-28 -69 93 0
-28 -70 94 0
-28 -71 95 0
-28 -72 96 0
-28 -73 97 0
-28 -75 99 0
-28 -77 101 0
-28 -78 102 0
-76 2 100 0
-28 52 1 0
28 -52 1 0
-28 -1 -3 50 0
-28 -1 -3 -98 0
-28 -1 -3 -42 0
-28 -1 -3 -33 0
-28 -2 -3 74 0
-28 -2 -3 -98 0
-28 -3 -66 90 0
-28 -3 -57 81 0
-28 -1 -5 42 0
-28 -1 -5 -90 0
-28 -1 -5 -50 0
-28 -1 -5 -33 0
-28 -2 -5 66 0
-28 -2 -5 -90 0
-28 -5 -74 98 0
-28 -5 -57 81 0
-28 -1 -6 33 0
-28 -1 -6 -81 0
-28 -1 -6 -50 0
-28 -1 -6 -42 0
-28 -2 -6 57 0
-28 -2 -6 -81 0
-28 -6 -74 98 0
-28 -6 -66 90 0
77 -101 0
-29 -31 0
-29 -32 0
-29 -33 0
-29 -34 0
-29 -36 0
-29 -37 0
-29 -38 0
-29 -39 0
-29 -40 0
-29 -42 0
-29 -44 0
-29 -45 0
-29 -46 0
-29 -47 0
-29 -48 0
-29 -49 0
-29 -50 0
-29 -51 0
-29 -52 0
-29 -53 2 0
-29 -55 79 0
-29 -56 80 0
-29 -57 81 0
-29 -58 82 0
-29 -60 84 0
-29 -61 85 0
-29 -62 86 0
-29 -63 87 0
-29 -64 88 0
-29 -66 90 0
-29 -68 92 0
-29 -69 93 0
-29 -70 94 0
-29 -71 95 0
-29 -72 96 0
-29 -73 97 0
-29 -74 98 0
-29 -75 99 0
-29 -76 100 0
-77 2 101 0
-29 53 1 0
29 -53 1 0
-29 -1 -3 41 0
-29 -1 -3 -89 0
-29 -1 -3 -54 0
-29 -1 -3 -43 0
-29 -1 -3 -35 0
-29 -2 -3 65 0
-29 -2 -3 -89 0
-29 -3 -78 102 0
-29 -3 -67 91 0
-29 -3 -59 83 0
-29 -1 -4 54 0
-29 -1 -4 -102 0
-29 -1 -4 -41 0
-29 -1 -4 -43 0
-29 -1 -4 -35 0
-29 -2 -4 78 0
-29 -2 -4 -102 0
-29 -4 -65 89 0
-29 -4 -67 91 0
-29 -4 -59 83 0
-29 -1 -5 43 0
-29 -1 -5 -91 0
-29 -1 -5 -41 0
-29 -1 -5 -54 0
-29 -1 -5 -35 0
-29 -2 -5 67 0
-29 -2 -5 -91 0
-29 -5 -65 89 0
-29 -5 -78 102 0
-29 -5 -59 83 0
-29 -1 -6 35 0
-29 -1 -6 -83 0
-29 -1 -6 -41 0
-29 -1 -6 -54 0
-29 -1 -6 -43 0
-29 -2 -6 59 0
-29 -2 -6 -83 0
-29 -6 -65 89 0
-29 -6 -78 102 0
-29 -6 -67 91 0
78 -102 0
-30 -31 0
-30 -32 0
-30 -33 0
-30 -34 0
-30 -35 0
-30 -36 0
-30 -38 0
-30 -39 0
-30 -40 0
-30 -41 0
-30 -42 0
-30 -43 0
-30 -44 0
-30 -46 0
-30 -47 0
-30 -48 0
-30 -49 0
-30 -50 0
-30 -51 0
-30 -52 0
-30 -54 2 0
-30 -4 0
-30 -55 79 0
-30 -56 80 0
-30 -57 81 0
-30 -58 82 0
-30 -59 83 0
-30 -60 84 0
-30 -62 86 0
-30 -63 87 0
-30 -64 88 0
-30 -65 89 0
-30 -66 90 0
-30 -67 91 0
-30 -68 92 0
-30 -70 94 0
-30 -71 95 0
-30 -72 96 0
-30 -73 97 0
-30 -74 98 0
-30 -75 99 0
-30 -76 100 0
-78 2 102 0
-30 54 1 0
30 -54 1 0
-30 -1 -3 53 0
-30 -1 -3 -101 0
-30 -1 -3 -45 0
-30 -1 -3 -37 0
-30 -2 -3 77 0
-30 -2 -3 -101 0
-30 -3 -69 93 0
-30 -3 -61 85 0
-30 -1 -5 45 0
-30 -1 -5 -93 0
-30 -1 -5 -53 0
-30 -1 -5 -37 0
-30 -2 -5 69 0
-30 -2 -5 -93 0
-30 -5 -77 101 0
-30 -5 -61 85 0
-30 -1 -6 37 0
-30 -1 -6 -85 0
-30 -1 -6 -53 0
-30 -1 -6 -45 0
-30 -2 -6 61 0
-30 -2 -6 -85 0
-30 -6 -77 101 0
-30 -6 -69 93 0
53 0
